21
18
18
0
26
0
12
27
0
33
30
92
0
36
22
21
0
30
16
0
0
60
23
28
23
16
0
12
11
19
29
26
24
375
27
59
43
13
42
80
19
23
53
29
52
36
15
43
0
117
0
41
35
0
0
0
21
15
26
0
27
35
24
42
0
23
13
29
46
0
39
0
27
38
0
33
22
23
30
33
0
70
13
44
0
0
19
32
19
0
20
13
87
0
0
31
21
12
13
0
